(set-logic ALL)
(set-option :produce-models true)
(declare-sort BoundSet 0)
(declare-sort UnboundSet 0)
(set-option :finite-model-find true)
(declare-fun IsSuspected (BoundSet) Bool)
(declare-fun IsTrappedIn (BoundSet BoundSet) Bool)
(declare-fun IsHuman (BoundSet) Bool)
(declare-fun HasDevastated (BoundSet) Bool)
(assert (not (=> (exists ((a BoundSet)) (exists ((b BoundSet)) (exists ((d BoundSet)) (and (IsSuspected a) (IsTrappedIn d b))))) (exists ((e BoundSet)) (exists ((f BoundSet)) (and (IsHuman e) (HasDevastated f)))))))
(check-sat)
(get-model)